c A SAT instance generated from a 2-CNF formula that had 28 clauses and 8 variables
p cnf 8 28
-4 -7 0
1 6 0
4 1 0
8 1 0
-4 6 0
6 -1 0
6 -7 0
7 3 0
6 4 0
-3 4 0
1 4 0
-6 7 0
6 4 0
-7 -3 0
-8 4 0
2 -4 0
-2 -4 0
-6 -3 0
-6 -2 0
8 -4 0
-2 -1 0
7 -8 0
-3 -5 0
8 -1 0
-4 -7 0
-8 -4 0
-2 -8 0
1 5 0
